Optimal - objective value 213.66000000
      0 x0_1                   1                   23.33
      7 x0_8                   1         0.0199999999999968
     11 x1_2                   1         8.75000000000001
     23 x2_4                   1                       0
     36 x3_7                   1                  -11.38
     49 x4_10                  1                       0
     53 x5_3                   1         0.399999999999997
     60 x6_0                   1         0.490000000000005
     70 x7_0                   1         6.07000000000001
     88 x8_9                   1                   19.48
     95 x9_5                   1                       0
    106 x10_6                  1         2.17558392881683e-15
    110 u1                     6                       0
    111 u2                    10                       0
    112 u3                    19                       0
    113 u4                    16                       0
    114 u5                    15                       0
    115 u6                    24                       0
    116 u7                    24                       0
    117 u8                     4                       0
    118 u9       9.99999999999999                       0
    119 u10                   20                       0
